SAT
15 12 -5 31 23 75 -99 -37 -87 57 -95 -81 -28 41 -60 -53 6 25 -18 40 58 -61 26 1 62 -9 65 44 -68 55 -3 -21 -77 4 63 -56 22 35 -10 54 91 -16 48 -86 11 88 -7 -59 -74 85 46 -8 38 98 50 51 -19 52 30 49 -27 -32 2 -13 -79 -17 -71 66 89 82 33 -84 78 -34 -70 -67 -64 -36 97 -43 92 72 -73 69 93 -83 -90 42 20 -100 -24 96 94 -76 -39 -45 -14 80 -29 -47 0
